graph_generation/data/cp/rcsp/1528799905_The_Hague_NL_60_120_2_weights-one_windows-loose.dzn
N = 27;
M = 50;
Edge_Start = [1, 1, 1, 2, 3, 3, 3, 4, 4, 5, 5, 5, 6, 6, 7, 7, 8, 9, 10, 11, 12, 12, 12, 13, 13, 14, 14, 14, 15, 15, 15, 16, 16, 17, 17, 18, 19, 20, 20, 20, 21, 22, 22, 23, 24, 25, 26, 26, 27, 27];
Edge_End = [6, 12, 26, 16, 9, 12, 13, 5, 14, 4, 15, 20, 1, 24, 10, 22, 15, 3, 2, 17, 3, 7, 18, 3, 21, 4, 20, 26, 5, 8, 20, 2, 22, 7, 18, 19, 11, 5, 14, 15, 13, 6, 12, 25, 23, 27, 1, 14, 1, 24];
L = [1, 1, 1, 1, 1, 1, 1, 1, 1, 1, 1, 1, 1, 1, 1, 1, 1, 1, 1, 1, 1, 1, 1, 1, 1, 1, 1, 1, 1, 1, 1, 1, 1, 1, 1, 1, 1, 1, 1, 1, 1, 1, 1, 1, 1, 1, 1, 1, 1, 1];
T = [1, 1, 1, 1, 1, 1, 1, 1, 1, 1, 1, 1, 1, 1, 1, 1, 1, 1, 1, 1, 1, 1, 1, 1, 1, 1, 1, 1, 1, 1, 1, 1, 1, 1, 1, 1, 1, 1, 1, 1, 1, 1, 1, 1, 1, 1, 1, 1, 1, 1];
Lower_Bound = [5, 8, 7, 2, 1, 5, 7, 2, 8, 8, 8, 5, 7, 2, 2, 10, 9, 6, 7, 2, 8, 7, 7, 6, 8, 4, 10];
Upper_Bound = [6, 18, 9, 4, 14, 10, 8, 6, 9, 14, 11, 6, 8, 4, 4, 13, 11, 12, 8, 9, 11, 12, 8, 14, 15, 10, 25];
Start = 5;
End = 21;
Time = 11;
